presolving:
(round 1, fast)       18 del vars, 18 del conss, 0 add conss, 0 chg bounds, 0 chg sides, 0 chg coeffs, 0 upgd conss, 0 impls, 15000 clqs
   (0.3s) running MILP presolver
   (0.3s) MILP presolver found nothing
(round 2, exhaustive) 18 del vars, 18 del conss, 0 add conss, 0 chg bounds, 0 chg sides, 0 chg coeffs, 15009 upgd conss, 0 impls, 15000 clqs
   (0.8s) probing: 51/13509 (0.4%) - 0 fixings, 0 aggregations, 0 implications, 0 bound changes
   (0.8s) probing aborted: 50/50 successive totally useless probings
   (0.8s) symmetry computation started: requiring (bin +, int -, cont +), (fixed: bin -, int +, cont -)
   (0.9s) no symmetry present
presolving (3 rounds: 3 fast, 2 medium, 2 exhaustive):
 18 deleted vars, 18 deleted constraints, 0 added constraints, 0 tightened bounds, 0 added holes, 0 changed sides, 0 changed coefficients
 0 implications, 15000 cliques
presolved problem has 13509 variables (13509 bin, 0 int, 0 impl, 0 cont) and 15009 constraints
      9 constraints of type <knapsack>
  15000 constraints of type <setppc>
Presolving Time: 0.82

 time | node  | left  |LP iter|LP it/n|mem/heur|mdpt |vars |cons |rows |cuts |sepa|confs|strbr|  dualbound   | primalbound  |  gap   | compl. 
p 1.2s|     1 |     0 |     0 |     - |  clique|   0 |  13k|  15k|  15k|   0 |  0 |   0 |   0 | 0.000000e+00 |-1.451590e+06 |    Inf | unknown
  3.1s|     1 |     0 |  5047 |     - |   143M |   0 |  13k|  15k|  15k|   0 |  0 |   7 |   0 |-1.446004e+06 |-1.451590e+06 |   0.39%| unknown
  5.3s|     1 |     0 |  5049 |     - |   147M |   0 |  13k|  15k|  15k|   2 |  1 |   7 |   0 |-1.446004e+06 |-1.451590e+06 |   0.39%| unknown
  7.9s|     1 |     0 |  5051 |     - |   148M |   0 |  13k|  15k|  15k|   4 |  2 |   7 |   0 |-1.446004e+06 |-1.451590e+06 |   0.39%| unknown
 10.6s|     1 |     0 |  5053 |     - |   150M |   0 |  13k|  15k|  15k|   6 |  3 |   7 |   0 |-1.446004e+06 |-1.451590e+06 |   0.39%| unknown
 13.1s|     1 |     0 |  5054 |     - |   154M |   0 |  13k|  15k|  15k|   7 |  4 |   7 |   0 |-1.446004e+06 |-1.451590e+06 |   0.39%| unknown
 15.8s|     1 |     0 |  5056 |     - |   155M |   0 |  13k|  15k|  15k|   9 |  5 |   7 |   0 |-1.446004e+06 |-1.451590e+06 |   0.39%| unknown
 18.4s|     1 |     0 |  5057 |     - |   157M |   0 |  13k|  15k|  15k|  10 |  6 |   7 |   0 |-1.446004e+06 |-1.451590e+06 |   0.39%| unknown
 21.0s|     1 |     0 |  5058 |     - |   159M |   0 |  13k|  15k|  15k|  11 |  7 |   7 |   0 |-1.446004e+06 |-1.451590e+06 |   0.39%| unknown
 23.0s|     1 |     0 |  5060 |     - |   160M |   0 |  13k|  15k|  15k|  13 |  8 |   7 |   0 |-1.446004e+06 |-1.451590e+06 |   0.39%| unknown
 25.1s|     1 |     0 |  5062 |     - |   162M |   0 |  13k|  15k|  15k|  15 |  9 |   7 |   0 |-1.446004e+06 |-1.451590e+06 |   0.39%| unknown
 27.8s|     1 |     0 |  5078 |     - |   163M |   0 |  13k|  15k|  15k|  18 | 10 |   7 |   0 |-1.446009e+06 |-1.451590e+06 |   0.39%| unknown
 29.6s|     1 |     0 |  5080 |     - |   165M |   0 |  13k|  15k|  15k|  20 | 11 |   7 |   0 |-1.446009e+06 |-1.451590e+06 |   0.39%| unknown
d30.9s|     1 |     0 |  8114 |     - |farkasdi|   0 |  13k|  15k|  15k|   0 | 11 |   7 |   0 |-1.446009e+06 |-1.448766e+06 |   0.19%| unknown
 32.4s|     1 |     0 | 10443 |     - |   167M |   0 |  13k|  15k|  15k|  20 | 11 |   7 |   0 |-1.446009e+06 |-1.448766e+06 |   0.19%| unknown
 time | node  | left  |LP iter|LP it/n|mem/heur|mdpt |vars |cons |rows |cuts |sepa|confs|strbr|  dualbound   | primalbound  |  gap   | compl. 
 33.8s|     1 |     0 | 10445 |     - |   169M |   0 |  13k|  15k|  15k|  22 | 12 |   7 |   0 |-1.446009e+06 |-1.448766e+06 |   0.19%| unknown
 38.1s|     1 |     2 | 10447 |     - |   169M |   0 |  13k|  15k|  15k|  22 | 13 |   7 |  19 |-1.446595e+06 |-1.448766e+06 |   0.15%| unknown
*47.5s|     6 |     3 | 12802 |1544.0 |strongbr|   4 |  13k|  15k|  15k|  22 |  1 |   7 | 109 |-1.446595e+06 |-1.448611e+06 |   0.14%|  13.80%
*54.6s|    11 |     2 | 15905 |1082.3 |strongbr|   4 |  13k|  15k|  15k|  22 |  1 |  12 | 164 |-1.447336e+06 |-1.448595e+06 |   0.09%|  45.98%
*79.0s|    20 |     3 | 20462 | 809.5 |strongbr|   5 |  13k|  13k|  15k|  22 |  1 |  16 | 457 |-1.447336e+06 |-1.448584e+06 |   0.09%|  72.12%
*84.0s|    25 |     2 | 22202 | 713.3 |strongbr|   7 |  13k|  13k|  15k|  22 |  2 |  35 | 554 |-1.447336e+06 |-1.448561e+06 |   0.08%|  76.81%

SCIP Status        : problem is solved [optimal solution found]
Solving Time (sec) : 106.93
Solving Nodes      : 43
Primal Bound       : -1.44856054116666e+06 (18 solutions)
Dual Bound         : -1.44856054116666e+06
Gap                : 0.00 %
Solve Status: optimal
Solve Time: 106.95 seconds
Objective Value: -1448560.54
